32	0

0	1	2
1	1	3
3	2	4	5
2	2	6	7
10	2	7	9
9	2	8	9
7	1	8
5	2	10	11
7	2	10	11
3	2	12	13
4	2	12	13
1	2	14	15
1	2	14	15
9	2	16	17
9	2	16	17
8	2	18	19
8	2	18	19
2	1	20
2	1	20
5	2	21	22
10	2	23	24
2	2	23	24
9	1	25
8	1	25
1	1	26
2	3	27	28	29
7	2	30	31
4	2	30	31
9	1	30
8	1	32
10	1	32
0	0
